p tw 208 398
1 56
1 57
1 131
1 132
2 92
2 93
2 132
2 133
2 153
2 154
3 175
3 176
3 198
3 199
4 191
4 192
4 207
4 208
5 57
5 58
5 133
5 134
5 154
5 155
6 83
6 84
6 144
6 145
6 187
6 188
7 103
7 104
7 205
7 206
8 55
8 56
8 130
8 131
8 152
8 153
9 100
9 101
9 203
9 204
10 90
10 91
10 194
11 192
11 193
11 208
12 114
12 115
12 182
12 183
13 107
13 108
13 129
13 130
14 98
14 99
14 145
14 146
15 96
15 97
15 159
15 160
16 78
16 79
16 136
16 137
16 176
16 177
17 109
17 110
17 194
17 195
18 105
18 106
18 168
18 169
19 110
19 111
19 178
19 179
20 88
20 122
20 123
20 151
21 63
21 64
21 141
21 142
22 88
22 89
22 124
22 125
22 151
22 152
23 61
23 62
23 138
23 139
23 158
23 159
24 105
24 167
24 168
25 73
25 74
25 172
25 173
26 117
26 118
26 139
26 140
26 183
26 184
27 64
27 65
27 163
27 164
28 74
28 75
28 127
28 128
29 77
29 78
29 174
29 175
30 72
30 73
30 126
30 127
30 171
30 172
31 162
31 163
31 206
31 207
32 65
32 66
32 149
32 150
32 165
32 166
33 66
33 67
33 150
34 75
34 76
34 173
34 174
35 104
35 164
35 165
36 101
36 102
36 147
36 148
36 161
36 162
37 118
37 119
37 142
37 143
37 185
37 186
38 76
38 77
38 196
38 197
39 94
39 95
39 134
39 135
39 155
39 156
40 59
40 60
40 135
40 136
40 156
40 157
41 79
41 80
41 177
41 178
42 119
42 120
42 143
42 144
42 186
42 187
43 112
43 113
43 137
43 138
43 179
43 180
44 121
44 148
44 149
44 190
44 191
45 108
45 109
45 128
45 129
46 86
46 87
46 204
46 205
47 68
47 69
47 123
47 124
47 170
47 171
48 84
48 85
48 202
48 203
49 113
49 114
49 200
49 201
50 116
50 117
50 140
50 141
51 120
51 121
51 146
51 147
51 188
51 189
52 81
52 82
52 180
52 181
53 70
53 71
53 125
53 126
54 62
54 63
54 160
54 161
55 56
55 122
56 57
57 58
58 59
59 60
60 61
61 62
62 63
63 64
64 65
65 66
66 67
67 166
68 69
68 167
69 70
70 71
71 72
72 73
73 74
74 75
75 76
76 77
77 78
78 79
79 80
80 81
81 82
82 83
83 84
84 85
85 86
86 87
87 193
88 89
89 90
90 91
91 92
92 93
93 94
94 95
95 96
96 97
97 98
98 99
99 100
100 101
101 102
102 103
103 104
105 106
106 107
107 108
108 109
109 110
110 111
111 112
112 113
113 114
114 115
115 116
116 117
117 118
118 119
119 120
120 121
122 123
123 124
124 125
125 126
126 127
127 128
128 129
129 130
130 131
131 132
132 133
133 134
134 135
135 136
136 137
137 138
138 139
139 140
140 141
141 142
142 143
143 144
144 145
145 146
146 147
147 148
148 149
149 150
151 152
152 153
153 154
154 155
155 156
156 157
157 158
158 159
159 160
160 161
161 162
162 163
163 164
164 165
165 166
167 168
168 169
169 170
170 171
171 172
172 173
173 174
174 175
175 176
176 177
177 178
178 179
179 180
180 181
181 182
182 183
183 184
184 185
185 186
186 187
187 188
188 189
189 190
190 191
191 192
192 193
194 195
195 196
196 197
197 198
198 199
199 200
200 201
201 202
202 203
203 204
204 205
205 206
206 207
207 208
